data;

param n := 5;
param m := 2;	

param profit :=
    1 0.1
    2 0.15
    3 0.2
    4 0.5
    5 1.2;

param volum :=
    1 2
    2 2
    3 2
    4 0.6
    5 0.3;

param milk_fat_req :=
    1 0
    2 2
    3 4
    4 15
    5 45;

param cow_litres :=
    1 500
    2 250;

param cow_milk_fat :=
    1 3.7
    2 4.9;


